p cnf 1434 2211
-10 -12 21 101 0
21 -27 -101 102 0
-27 -31 -102 103 0
-31 -80 99 -103 0
33 48 104 105 0
33 48 104 -105 0
33 48 -104 105 0
33 48 -104 -105 0
-14 -39 50 106 0
50 51 -106 107 0
51 -66 -107 108 0
-66 -69 96 -108 0
28 31 53 109 0
53 -68 -77 -109 0
28 -49 61 -62 0
14 -20 -32 110 0
-32 -53 -110 111 0
-53 55 -111 112 0
55 56 -112 113 0
56 -58 -113 114 0
-58 60 -114 115 0
60 61 -115 116 0
61 -63 -68 -116 0
-6 27 -48 117 0
-6 27 -48 -117 0
19 34 -57 118 0
-57 -66 -118 119 0
-66 78 89 -119 0
5 -41 -91 120 0
-91 99 100 -120 0
6 -34 52 -70 0
27 44 -84 89 0
9 23 -38 121 0
-38 -54 -121 122 0
-54 -62 90 -122 0
38 -42 -81 87 0
-3 -10 123 124 0
-3 -10 123 -124 0
-3 -10 -123 124 0
-3 -10 -123 -124 0
28 42 -53 64 0
30 -76 -81 125 0
30 -76 -81 -125 0
11 18 27 126 0
27 29 -126 127 0
29 34 -127 128 0
34 45 -128 129 0
45 -59 -129 130 0
-59 -62 -130 131 0
-62 72 98 -131 0
-3 -30 38 47 0
-9 14 -34 132 0
-34 -65 -132 133 0
-65 -74 -133 134 0
-74 85 -134 135 0
85 86 93 -135 0
-25 -57 76 136 0
76 -81 92 -136 0
-9 34 -51 137 0
-51 92 96 -137 0
32 -65 -78 97 0
1 -7 10 138 0
10 28 -138 139 0
28 -30 -139 140 0
-30 -80 99 -140 0
15 77 87 141 0
15 77 87 -141 0
-28 -66 86 142 0
-28 -66 86 -142 0
48 49 -54 143 0
-54 -68 -143 144 0
-68 76 -78 -144 0
32 60 145 146 0
32 60 145 -146 0
32 60 -145 146 0
32 60 -145 -146 0
-10 14 -36 147 0
-36 40 -147 148 0
40 -72 83 -148 0
-32 55 -70 149 0
-70 -75 -149 150 0
-75 -79 -150 151 0
-79 92 97 -151 0
-33 57 -64 152 0
-33 57 -64 -152 0
30 -33 40 153 0
40 75 -153 154 0
75 -85 -96 -154 0
74 76 94 155 0
74 76 94 -155 0
2 -29 35 156 0
35 60 -91 -156 0
49 99 157 158 0
49 99 157 -158 0
49 99 -157 158 0
49 99 -157 -158 0
4 -85 88 -98 0
7 14 -19 159 0
-19 72 73 -159 0
-31 71 77 92 0
-30 33 -54 -71 0
-44 63 68 160 0
68 77 -89 -160 0
-14 -40 51 161 0
51 53 -161 162 0
53 -74 -162 163 0
-74 -76 -163 164 0
-76 85 -164 165 0
85 -91 -95 -165 0
-14 -43 94 99 0
24 52 79 166 0
24 52 79 -166 0
-1 -24 31 167 0
31 -37 68 -167 0
25 -29 -91 168 0
25 -29 -91 -168 0
-26 57 60 169 0
60 -67 73 -169 0
-6 -11 -17 170 0
-17 76 -170 171 0
76 90 91 -171 0
-30 39 -42 172 0
-42 -66 -172 173 0
-66 -70 -173 174 0
-70 98 99 -174 0
-7 -13 -26 175 0
-26 53 -175 176 0
53 55 -176 177 0
55 72 -177 178 0
72 -85 -178 179 0
-85 92 -93 -179 0
38 -48 64 -75 0
-8 -12 -17 180 0
-17 -47 -180 181 0
-47 92 -181 182 0
92 99 -100 -182 0
-10 -24 -28 183 0
-28 -32 -183 184 0
-32 42 -184 185 0
42 -61 -185 186 0
-61 -81 -186 187 0
-81 86 -93 -187 0
2 -13 -42 188 0
-42 44 84 -188 0
-12 -15 28 95 0
24 -29 36 189 0
36 37 -189 190 0
37 72 -85 -190 0
11 13 26 191 0
26 27 -191 192 0
27 43 -192 193 0
43 47 -193 194 0
47 -53 -77 -194 0
6 19 22 195 0
22 24 -195 196 0
24 -38 -196 197 0
-38 -55 -197 198 0
-55 81 -91 -198 0
-18 -24 199 200 0
-18 -24 199 -200 0
-18 -24 -199 200 0
-18 -24 -199 -200 0
7 8 -14 201 0
-14 35 -201 202 0
35 -54 -95 -202 0
4 30 -43 203 0
-43 -53 -64 -203 0
17 23 66 204 0
17 23 66 -204 0
-32 -39 66 205 0
66 -87 95 -205 0
23 -36 -59 206 0
-59 -78 91 -206 0
21 22 -33 207 0
21 22 -33 -207 0
7 34 -35 208 0
-35 -46 -208 209 0
-46 -61 -209 210 0
-61 -64 -210 211 0
-64 -85 -97 -211 0
-23 -28 34 212 0
34 35 -212 213 0
35 63 -213 214 0
63 95 -100 -214 0
43 -72 75 215 0
75 -84 -87 -215 0
-32 37 66 216 0
66 -81 85 -216 0
19 -41 50 217 0
50 -51 -54 -217 0
-56 66 218 219 0
-56 66 218 -219 0
-56 66 -218 219 0
-56 66 -218 -219 0
7 8 19 220 0
19 27 -220 221 0
27 -35 -221 222 0
-35 -42 -81 -222 0
-3 7 -15 223 0
-15 18 -223 224 0
18 -19 -224 225 0
-19 53 -225 226 0
53 65 -226 227 0
65 89 -90 -227 0
-19 35 53 -59 0
38 -60 -64 -76 0
-13 30 54 228 0
-13 30 54 -228 0
-5 37 100 229 0
-5 37 100 -229 0
-9 -11 17 230 0
17 65 -96 -230 0
-6 -12 47 231 0
-6 -12 47 -231 0
-8 23 -34 232 0
-34 73 -232 233 0
73 74 -83 -233 0
43 67 84 234 0
84 94 -234 235 0
94 95 -98 -235 0
37 -76 79 236 0
79 -85 88 -236 0
3 -10 34 237 0
34 43 -237 238 0
43 -81 97 -238 0
87 -94 239 240 0
87 -94 239 -240 0
87 -94 -239 240 0
87 -94 -239 -240 0
-5 -8 29 241 0
29 -37 -241 242 0
-37 -54 72 -242 0
-26 63 -67 243 0
-67 -89 -243 244 0
-89 92 98 -244 0
-1 -41 44 245 0
44 -56 -245 246 0
-56 69 -246 247 0
69 -74 -247 248 0
-74 -90 -248 249 0
-90 93 -96 -249 0
28 40 -62 250 0
-62 -71 -250 251 0
-71 82 -83 -251 0
20 -48 50 89 0
38 93 252 253 0
38 93 252 -253 0
38 93 -252 253 0
38 93 -252 -253 0
-28 -57 -83 254 0
-28 -57 -83 -254 0
-76 91 255 256 0
-76 91 255 -256 0
-76 91 -255 256 0
-76 91 -255 -256 0
-9 -21 50 257 0
50 -56 -98 -257 0
-3 9 16 258 0
16 43 -258 259 0
43 -47 -259 260 0
-47 -66 -260 261 0
-66 -75 95 -261 0
-43 51 -89 262 0
-43 51 -89 -262 0
-37 50 75 263 0
-37 50 75 -263 0
4 19 -25 264 0
-25 -35 42 -264 0
14 50 60 -88 0
67 -68 -90 265 0
67 -68 -90 -265 0
-29 -80 -91 -96 0
18 70 -83 -98 0
23 28 44 266 0
44 46 -266 267 0
46 -54 -267 268 0
-54 -72 -268 269 0
-72 75 -269 270 0
75 -85 100 -270 0
25 30 45 271 0
45 -82 -271 272 0
-82 -94 -100 -272 0
43 -63 77 273 0
77 -79 -99 -273 0
85 -86 98 274 0
85 -86 98 -274 0
7 18 -20 275 0
-20 -24 -275 276 0
-24 51 -276 277 0
51 67 -277 278 0
67 69 -278 279 0
69 -91 -279 280 0
-91 94 96 -280 0
-12 25 74 -79 0
-17 -52 -91 95 0
-37 -49 69 -79 0
32 -68 -77 83 0
-20 -29 -36 281 0
-36 40 -281 282 0
40 -53 -282 283 0
-53 77 79 -283 0
-2 -19 22 284 0
22 -37 -284 285 0
-37 87 100 -285 0
-12 -62 -91 286 0
-12 -62 -91 -286 0
-13 33 -38 287 0
-38 41 -80 -287 0
-5 9 12 288 0
12 -14 -288 289 0
-14 -23 -289 290 0
-23 -49 -290 291 0
-49 -60 71 -291 0
3 10 -59 292 0
-59 64 -292 293 0
64 -77 95 -293 0
4 42 98 294 0
4 42 98 -294 0
-7 17 35 295 0
35 42 43 -295 0
4 -37 40 296 0
40 -53 -70 -296 0
-32 86 94 97 0
2 16 -27 297 0
-27 49 -297 298 0
49 68 -298 299 0
68 -74 -299 300 0
-74 -91 -93 -300 0
77 -94 -99 301 0
77 -94 -99 -301 0
-10 -69 302 303 0
-10 -69 302 -303 0
-10 -69 -302 303 0
-10 -69 -302 -303 0
-1 -27 42 304 0
42 -67 -304 305 0
-67 85 -305 306 0
85 88 94 -306 0
27 38 -72 307 0
27 38 -72 -307 0
1 2 43 308 0
43 -57 -308 309 0
-57 92 -94 -309 0
9 31 40 80 0
41 82 97 310 0
41 82 97 -310 0
-30 96 -99 311 0
-30 96 -99 -311 0
-25 -29 312 313 0
-25 -29 312 -313 0
-25 -29 -312 313 0
-25 -29 -312 -313 0
33 64 -81 314 0
33 64 -81 -314 0
-15 37 -60 315 0
-60 -64 -76 -315 0
2 5 8 316 0
8 -11 -316 317 0
-11 -55 -317 318 0
-55 57 -318 319 0
57 -58 -319 320 0
-58 68 -320 321 0
68 -72 -321 322 0
-72 -75 79 -322 0
17 -28 -39 78 0
18 36 -41 323 0
18 36 -41 -323 0
-6 -45 50 324 0
50 54 -324 325 0
54 -66 -325 326 0
-66 68 72 -326 0
-9 26 -51 327 0
-51 73 -327 328 0
73 77 89 -328 0
19 29 -38 -90 0
15 19 -22 -70 0
19 -34 45 329 0
45 51 -329 330 0
51 54 -330 331 0
54 56 -331 332 0
56 -70 -86 -332 0
-5 -24 -48 333 0
-48 -53 -66 -333 0
30 35 -38 334 0
-38 -51 -334 335 0
-51 -93 -98 -335 0
19 -21 -24 336 0
-24 -45 -68 -336 0
-10 57 337 338 0
-10 57 337 -338 0
-10 57 -337 338 0
-10 57 -337 -338 0
4 12 76 100 0
50 51 -66 339 0
50 51 -66 -339 0
18 -27 48 64 0
9 -21 25 340 0
25 27 -340 341 0
27 -30 38 -341 0
19 25 -62 342 0
19 25 -62 -342 0
-10 -84 343 344 0
-10 -84 343 -344 0
-10 -84 -343 344 0
-10 -84 -343 -344 0
9 10 -51 345 0
-51 -55 -345 346 0
-55 -59 86 -346 0
-10 23 -88 -98 0
6 40 -45 347 0
-45 -62 -347 348 0
-62 69 -348 349 0
69 74 -349 350 0
74 -79 89 -350 0
26 -28 -33 351 0
-33 37 -351 352 0
37 43 -352 353 0
43 54 63 -353 0
-15 -28 32 354 0
32 44 -354 355 0
44 -47 -355 356 0
-47 53 -356 357 0
53 -59 79 -357 0
-4 80 97 358 0
-4 80 97 -358 0
-11 -65 -85 -88 0
-6 -8 -52 359 0
-52 -82 -91 -359 0
2 -25 -29 360 0
-29 70 -360 361 0
70 81 -361 362 0
81 -82 -362 363 0
-82 -92 -363 364 0
-92 -95 98 -364 0
-18 31 -65 80 0
-9 -11 35 365 0
35 63 -365 366 0
63 -73 -366 367 0
-73 -81 -86 -367 0
-20 -23 -48 61 0
24 -64 68 368 0
24 -64 68 -368 0
-12 37 60 65 0
18 -72 369 370 0
18 -72 369 -370 0
18 -72 -369 370 0
18 -72 -369 -370 0
18 -32 -47 52 0
42 84 371 372 0
42 84 371 -372 0
42 84 -371 372 0
42 84 -371 -372 0
-7 -19 36 373 0
-7 -19 36 -373 0
36 -42 64 374 0
64 65 -77 -374 0
-6 8 -28 375 0
-28 32 -375 376 0
32 -47 -376 377 0
-47 61 -377 378 0
61 64 -378 379 0
64 66 98 -379 0
-30 50 70 380 0
70 73 74 -380 0
-4 24 -38 60 0
-15 47 58 381 0
-15 47 58 -381 0
-31 -63 66 382 0
-31 -63 66 -382 0
-3 6 26 383 0
26 27 79 -383 0
36 55 57 384 0
57 59 94 -384 0
53 58 -100 385 0
53 58 -100 -385 0
-3 -31 -44 -54 0
14 25 82 -91 0
-13 19 -55 386 0
-13 19 -55 -386 0
9 28 29 387 0
29 -64 -387 388 0
-64 73 83 -388 0
-5 16 -21 389 0
-21 -40 -389 390 0
-40 42 -390 391 0
42 47 -53 -391 0
50 -52 -85 392 0
50 -52 -85 -392 0
32 34 -49 393 0
-49 51 87 -393 0
-57 -79 -89 394 0
-57 -79 -89 -394 0
8 -52 -75 -90 0
-34 -47 69 395 0
-34 -47 69 -395 0
10 -11 -25 396 0
-25 35 -396 397 0
35 -66 -397 398 0
-66 -68 -398 399 0
-68 -91 -399 400 0
-91 93 -94 -400 0
11 20 -32 401 0
-32 -36 72 -401 0
5 -8 -53 84 0
6 17 20 49 0
-3 -8 95 402 0
-3 -8 95 -402 0
74 -88 92 403 0
74 -88 92 -403 0
13 14 -30 404 0
-30 34 -404 405 0
34 36 -405 406 0
36 57 -406 407 0
57 -64 -407 408 0
-64 -73 -408 409 0
-73 -90 -95 -409 0
5 42 57 410 0
5 42 57 -410 0
-23 -48 59 411 0
59 60 -411 412 0
60 -75 -78 -412 0
37 40 62 413 0
62 -77 -86 -413 0
37 -58 70 -71 0
23 -29 -41 414 0
-41 -62 -414 415 0
-62 64 -415 416 0
64 65 -416 417 0
65 -67 -417 418 0
-67 69 -418 419 0
69 70 -419 420 0
70 -72 -77 -420 0
-15 36 -57 421 0
-15 36 -57 -421 0
8 9 28 422 0
28 43 -422 423 0
43 -66 -423 424 0
-66 -75 -424 425 0
-75 87 98 -425 0
14 -50 -100 426 0
14 -50 -100 -426 0
15 -43 61 -79 0
36 53 -93 98 0
18 32 -47 427 0
-47 -63 -427 428 0
-63 -71 99 -428 0
47 -51 -90 96 0
-12 -19 429 430 0
-12 -19 429 -430 0
-12 -19 -429 430 0
-12 -19 -429 -430 0
37 51 -62 73 0
7 39 -85 -90 0
20 27 36 431 0
36 38 -431 432 0
38 43 -432 433 0
43 54 -433 434 0
54 -68 -434 435 0
-68 -71 81 -435 0
2 -12 -39 436 0
-39 47 56 -436 0
1 -18 23 437 0
23 -43 -437 438 0
-43 -74 -438 439 0
-74 -83 -439 440 0
-83 94 95 -440 0
1 5 -34 441 0
-34 -66 -441 442 0
-66 85 -90 -442 0
6 -18 43 -60 0
8 41 -74 -87 0
10 -16 19 443 0
19 37 -443 444 0
37 -39 -89 -444 0
24 86 96 445 0
24 86 96 -445 0
-37 -75 95 446 0
-37 -75 95 -446 0
57 58 -63 447 0
-63 -77 -447 448 0
-77 85 -87 -448 0
41 69 449 450 0
41 69 449 -450 0
41 69 -449 450 0
41 69 -449 -450 0
1 6 -19 451 0
-19 23 -451 452 0
23 -45 -452 453 0
-45 49 -453 454 0
49 -81 92 -454 0
-41 64 -79 455 0
-79 -84 -88 -455 0
-5 -42 66 -73 0
3 39 -42 456 0
-42 49 -456 457 0
49 84 -94 -457 0
83 85 458 459 0
83 85 458 -459 0
83 85 -458 459 0
83 85 -458 -459 0
8 11 -38 460 0
-38 44 -460 461 0
44 69 -100 -461 0
-7 58 462 463 0
-7 58 462 -463 0
-7 58 -462 463 0
-7 58 -462 -463 0
13 -94 97 464 0
13 -94 97 -464 0
1 16 23 465 0
23 -28 -465 466 0
-28 81 82 -466 0
-40 80 86 467 0
-40 80 86 -467 0
-39 42 -63 -80 0
-4 -53 72 468 0
72 77 -468 469 0
77 86 -98 -469 0
3 8 -23 470 0
-23 -49 -470 471 0
-49 60 -471 472 0
60 62 -472 473 0
62 -83 -473 474 0
-83 -85 -474 475 0
-85 94 -100 -475 0
-23 -52 476 477 0
-23 -52 476 -477 0
-23 -52 -476 477 0
-23 -52 -476 -477 0
33 61 88 478 0
33 61 88 -478 0
-10 -33 40 479 0
40 -46 77 -479 0
34 -38 -100 480 0
34 -38 -100 -480 0
-35 66 69 481 0
69 -76 82 -481 0
7 8 -15 482 0
-15 -20 -482 483 0
-20 -26 -483 484 0
-26 85 -484 485 0
85 99 100 -485 0
1 -2 -39 486 0
-39 48 -486 487 0
48 -51 -487 488 0
-51 -75 -79 -488 0
-16 -22 -35 489 0
-35 62 -489 490 0
62 64 -490 491 0
64 81 -94 -491 0
1 8 -9 492 0
-9 47 -492 493 0
47 -57 -493 494 0
-57 73 -84 -494 0
-2 -17 -21 495 0
-21 -26 -56 -495 0
-19 -33 -37 496 0
-37 -41 -496 497 0
-41 51 -497 498 0
51 -70 -498 499 0
-70 -90 95 -499 0
4 11 -22 500 0
-22 -51 -500 501 0
-51 53 93 -501 0
-21 -24 37 502 0
-21 -24 37 -502 0
33 -38 45 503 0
45 46 -503 504 0
46 81 -94 -504 0
20 22 35 505 0
35 36 -505 506 0
36 52 -506 507 0
52 56 -507 508 0
56 -62 -86 -508 0
15 28 31 509 0
31 33 -509 510 0
33 -47 -510 511 0
-47 -64 -511 512 0
-64 90 -100 -512 0
-4 -27 -33 513 0
-4 -27 -33 -513 0
16 17 -23 514 0
-23 44 -63 -514 0
13 39 -52 515 0
-52 -62 -73 -515 0
4 26 32 75 0
-41 -48 75 -96 0
32 -45 -68 516 0
-68 -87 100 -516 0
-6 30 31 -42 0
4 -9 16 517 0
16 43 -517 518 0
43 -44 -518 519 0
-44 -55 -519 520 0
-55 -70 -520 521 0
-70 -73 -94 -521 0
-32 -37 43 522 0
43 44 72 -522 0
52 -81 84 523 0
84 -93 -96 -523 0
-41 46 75 524 0
75 -90 94 -524 0
28 -50 59 525 0
59 -60 -63 -525 0
-65 75 526 527 0
-65 75 526 -527 0
-65 75 -526 527 0
-65 75 -526 -527 0
16 17 28 528 0
28 36 -528 529 0
36 -44 -529 530 0
-44 -51 -90 -530 0
-12 16 -24 531 0
-24 27 -531 532 0
27 -28 -532 533 0
-28 62 -533 534 0
62 74 -534 535 0
74 98 -99 -535 0
-28 44 62 -68 0
47 -69 -73 -85 0
9 -22 39 63 0
-5 -14 46 536 0
-5 -14 46 -536 0
-18 -20 26 74 0
-15 -21 56 537 0
-15 -21 56 -537 0
3 4 -7 538 0
-7 -17 -538 539 0
-17 32 -539 540 0
32 -43 -540 541 0
-43 82 -541 542 0
82 83 -92 -542 0
52 76 93 543 0
52 76 93 -543 0
6 46 -85 544 0
-85 88 -544 545 0
88 -94 97 -545 0
-3 12 -19 546 0
-19 43 -546 547 0
43 52 -90 -547 0
1 7 -14 548 0
-14 -17 -548 549 0
-17 38 -549 550 0
38 -46 -550 551 0
-46 -63 81 -551 0
2 -5 -35 552 0
-35 72 -552 553 0
72 -76 -98 -553 0
-10 -50 53 554 0
53 -65 -554 555 0
-65 78 -555 556 0
78 -83 -99 -556 0
37 49 -71 557 0
-71 -80 -557 558 0
-80 91 -92 -558 0
2 29 -57 559 0
-57 59 98 -559 0
-37 -66 -92 560 0
-37 -66 -92 -560 0
-7 -85 100 561 0
-7 -85 100 -561 0
4 -18 -30 562 0
-30 59 -65 -562 0
-12 18 25 563 0
25 52 -563 564 0
52 -56 -564 565 0
-56 -75 -84 -565 0
-52 60 -98 566 0
-52 60 -98 -566 0
-46 59 84 567 0
-46 59 84 -567 0
13 28 -34 568 0
-34 -44 51 -568 0
23 59 69 -97 0
-5 76 -77 -99 0
-38 -89 -100 569 0
-38 -89 -100 -569 0
-7 -83 570 571 0
-7 -83 570 -571 0
-7 -83 -570 571 0
-7 -83 -570 -571 0
9 27 79 -92 0
-3 -9 32 572 0
32 37 -572 573 0
37 53 -573 574 0
53 55 -574 575 0
55 -63 -575 576 0
-63 -81 -576 577 0
-81 84 -94 -577 0
34 39 54 -91 0
-8 94 578 579 0
-8 94 578 -579 0
-8 94 -578 579 0
-8 94 -578 -579 0
7 52 -72 580 0
-72 86 -88 -580 0
94 -95 581 582 0
94 -95 581 -582 0
94 -95 -581 582 0
94 -95 -581 -582 0
3 5 -26 583 0
3 5 -26 -583 0
16 27 -29 584 0
-29 -33 -584 585 0
-33 60 -585 586 0
60 76 -586 587 0
76 78 -100 -587 0
4 -21 34 588 0
34 83 -88 -588 0
-26 -61 -100 589 0
-26 -61 -100 -589 0
-46 -58 78 -88 0
41 -77 -86 92 0
9 -29 -38 590 0
-38 -45 -590 591 0
-45 49 -591 592 0
49 -62 -592 593 0
-62 86 88 -593 0
-11 -28 31 594 0
31 -46 96 -594 0
-21 -71 -100 595 0
-21 -71 -100 -595 0
-22 42 -47 596 0
-47 50 -89 -596 0
4 -14 18 597 0
18 21 -597 598 0
21 -23 -598 599 0
-23 -32 -599 600 0
-32 -58 -600 601 0
-58 -69 80 -601 0
7 12 19 602 0
19 -68 -602 603 0
-68 73 -86 -603 0
13 51 604 605 0
13 51 604 -605 0
13 51 -604 605 0
13 51 -604 -605 0
-16 26 44 606 0
44 51 52 -606 0
3 6 13 607 0
13 -46 -607 608 0
-46 49 -608 609 0
49 -62 -79 -609 0
-2 -41 95 610 0
-2 -41 95 -610 0
-3 -8 11 611 0
11 25 -611 612 0
25 -36 -612 613 0
-36 58 -613 614 0
58 77 -614 615 0
77 -83 -100 -615 0
3 -19 -78 616 0
3 -19 -78 -616 0
-10 -36 51 617 0
51 -76 -617 618 0
-76 94 97 -618 0
1 -3 36 619 0
36 47 -81 -619 0
10 11 52 -66 0
6 18 40 620 0
40 49 89 -620 0
5 -8 50 91 0
-34 -38 621 622 0
-34 -38 621 -622 0
-34 -38 -621 622 0
-34 -38 -621 -622 0
42 73 -90 623 0
42 73 -90 -623 0
-24 46 -69 624 0
-69 -73 -85 -624 0
11 14 17 625 0
17 -20 -625 626 0
-20 -64 -626 627 0
-64 66 -627 628 0
66 -67 -628 629 0
-67 77 -629 630 0
77 -81 -630 631 0
-81 -84 88 -631 0
26 -37 -48 87 0
27 45 -50 632 0
27 45 -50 -632 0
-15 -54 59 633 0
59 63 -633 634 0
63 -75 -634 635 0
-75 77 81 -635 0
-18 35 -60 636 0
-60 82 -636 637 0
82 86 98 -637 0
28 38 -47 -99 0
24 28 -31 -79 0
28 -43 54 638 0
54 60 -638 639 0
60 63 -639 640 0
63 65 -640 641 0
65 -79 -95 -641 0
-2 -7 -14 642 0
-14 -33 -642 643 0
-33 -57 -643 644 0
-57 -62 -75 -644 0
39 44 -47 -60 0
28 -30 -33 645 0
-33 -54 -77 -645 0
9 -19 66 646 0
9 -19 66 -646 0
13 21 85 647 0
13 21 85 -647 0
59 60 -75 648 0
59 60 -75 -648 0
27 -36 57 73 0
18 -30 34 649 0
34 36 -649 650 0
36 -39 47 -650 0
28 34 -71 651 0
28 34 -71 -651 0
-19 -93 652 653 0
-19 -93 652 -653 0
-19 -93 -652 653 0
-19 -93 -652 -653 0
-7 18 19 654 0
19 -60 -654 655 0
-60 -64 -655 656 0
-64 -68 95 -656 0
-19 32 -97 657 0
-19 32 -97 -657 0
15 49 -54 658 0
-54 -71 -658 659 0
-71 78 -659 660 0
78 83 -660 661 0
83 -88 98 -661 0
35 -37 -42 662 0
-42 46 -662 663 0
46 52 -663 664 0
52 63 72 -664 0
6 -24 -37 665 0
-37 41 -665 666 0
41 53 -666 667 0
53 -56 -667 668 0
-56 62 -668 669 0
62 -68 88 -669 0
-13 89 670 671 0
-13 89 670 -671 0
-13 89 -670 671 0
-13 89 -670 -671 0
-20 -74 -94 -97 0
-1 -4 7 672 0
7 -15 -672 673 0
-15 -17 -673 674 0
-17 -61 -674 675 0
-61 -91 -100 -675 0
11 -34 -38 676 0
-38 79 -676 677 0
79 90 -91 -677 0
-27 40 -74 89 0
-18 -20 44 678 0
44 72 -678 679 0
72 -82 -679 680 0
-82 -90 -95 -680 0
-29 -32 -57 70 0
33 -73 77 681 0
33 -73 77 -681 0
-21 46 69 74 0
27 -81 682 683 0
27 -81 682 -683 0
27 -81 -682 683 0
27 -81 -682 -683 0
27 -41 -56 61 0
51 93 684 685 0
51 93 684 -685 0
51 93 -684 685 0
51 93 -684 -685 0
-16 -28 45 686 0
-16 -28 45 -686 0
7 45 -51 687 0
-51 73 -687 688 0
73 74 -86 -688 0
-15 17 -37 689 0
-37 41 -689 690 0
41 -56 -690 691 0
-56 70 -691 692 0
70 73 75 -692 0
-39 59 79 693 0
79 82 83 -693 0
-13 33 -47 69 0
-24 56 67 694 0
-24 56 67 -694 0
-40 -72 75 695 0
-40 -72 75 -695 0
3 -12 15 696 0
15 35 -696 697 0
35 36 88 -697 0
-9 45 64 698 0
64 66 68 -698 0
62 67 699 700 0
62 67 699 -700 0
62 67 -699 700 0
62 67 -699 -700 0
-12 -40 -53 -63 0
23 34 91 -100 0
-22 28 -64 701 0
-22 28 -64 -701 0
18 37 38 702 0
38 -73 -702 703 0
-73 82 92 -703 0
-14 25 -30 704 0
-30 -49 -704 705 0
-49 51 -705 706 0
51 56 -62 -706 0
59 -61 -94 707 0
59 -61 -94 -707 0
41 43 -58 708 0
-58 60 96 -708 0
-66 -88 -98 709 0
-66 -88 -98 -709 0
17 -61 -84 -99 0
-43 -56 78 710 0
-43 -56 78 -710 0
2 -3 711 712 0
2 -3 711 -712 0
2 -3 -711 712 0
2 -3 -711 -712 0
19 -20 -34 713 0
-34 44 -713 714 0
44 -75 -714 715 0
-75 -77 -100 -715 0
20 29 -41 716 0
-41 -45 81 -716 0
14 -17 -62 93 0
4 15 26 717 0
26 29 58 -717 0
1 -12 -17 718 0
1 -12 -17 -718 0
-4 83 -97 719 0
-4 83 -97 -719 0
22 23 -39 720 0
-39 43 -720 721 0
43 45 -721 722 0
45 66 -722 723 0
66 -73 -723 724 0
-73 -82 -99 -724 0
14 51 66 725 0
14 51 66 -725 0
-32 -57 68 726 0
68 69 -726 727 0
69 -84 -87 -727 0
46 49 71 728 0
71 -86 -95 -728 0
46 -67 79 -80 0
32 -38 -50 729 0
-50 -71 -729 730 0
-71 73 -730 731 0
73 74 -731 732 0
74 -76 -732 733 0
-76 78 -733 734 0
78 79 -734 735 0
79 -81 -86 -735 0
-24 45 -66 736 0
-24 45 -66 -736 0
7 -25 737 738 0
7 -25 737 -738 0
7 -25 -737 738 0
7 -25 -737 -738 0
-9 17 18 739 0
18 37 -739 740 0
37 52 -740 741 0
52 -75 -741 742 0
-75 -84 96 -742 0
23 -59 743 744 0
23 -59 743 -744 0
23 -59 -743 744 0
23 -59 -743 -744 0
-2 7 24 745 0
24 -52 -745 746 0
-52 70 -88 -746 0
8 45 62 747 0
8 45 62 -747 0
5 27 41 748 0
41 -56 -748 749 0
-56 -72 -80 -749 0
56 -60 -99 750 0
56 -60 -99 -750 0
-21 -28 751 752 0
-21 -28 751 -752 0
-21 -28 -751 752 0
-21 -28 -751 -752 0
46 60 -71 82 0
16 48 -94 -99 0
29 36 45 753 0
45 47 -753 754 0
47 52 -754 755 0
52 63 -755 756 0
63 -77 -756 757 0
-77 -80 90 -757 0
3 4 11 758 0
11 -21 -758 759 0
-21 -48 -759 760 0
-48 56 65 -760 0
10 -27 32 761 0
32 -52 -761 762 0
-52 -83 -92 -762 0
10 14 -43 763 0
-43 -75 -763 764 0
-75 94 -99 -764 0
15 -27 52 -69 0
17 50 -83 -96 0
5 19 -25 765 0
-25 28 -765 766 0
28 46 -766 767 0
46 -48 -98 -767 0
4 33 95 768 0
4 33 95 -768 0
-46 -84 769 770 0
-46 -84 769 -770 0
-46 -84 -769 770 0
-46 -84 -769 -770 0
66 67 -72 771 0
-72 -86 -771 772 0
-86 94 -96 -772 0
8 50 78 773 0
8 50 78 -773 0
10 15 -28 774 0
-28 32 -774 775 0
32 -54 -775 776 0
-54 58 -90 -776 0
-50 73 -88 777 0
-88 -93 -97 -777 0
-3 -14 -51 778 0
-51 75 -82 -778 0
12 48 -51 779 0
-51 58 93 -779 0
-9 92 94 780 0
-9 92 94 -780 0
17 20 -47 781 0
-47 53 78 -781 0
-3 6 -16 67 0
10 25 32 782 0
32 -37 -782 783 0
-37 90 91 -783 0
-49 89 95 784 0
-49 89 95 -784 0
-7 -48 51 785 0
51 -72 -89 -785 0
3 -9 -13 786 0
-13 -62 -786 787 0
-62 81 -787 788 0
81 86 95 -788 0
12 17 -32 789 0
-32 -58 -789 790 0
-58 69 -790 791 0
69 71 -791 792 0
71 -92 -94 -792 0
-32 -61 793 794 0
-32 -61 793 -794 0
-32 -61 -793 794 0
-32 -61 -793 -794 0
42 70 97 795 0
42 70 97 -795 0
-9 -19 -42 796 0
-42 49 -796 797 0
49 -55 86 -797 0
43 -47 798 799 0
43 -47 798 -799 0
43 -47 -798 799 0
43 -47 -798 -799 0
8 9 -44 800 0
-44 75 -800 801 0
75 78 -801 802 0
78 -85 91 -802 0
16 17 -24 803 0
-24 -29 -803 804 0
-29 -35 94 -804 0
-3 10 -11 805 0
-11 -48 -805 806 0
-48 57 -806 807 0
57 -60 -807 808 0
-60 -84 -88 -808 0
-25 -31 -44 809 0
-44 71 -809 810 0
71 73 90 -810 0
10 17 -18 811 0
-18 56 -811 812 0
56 -66 -812 813 0
-66 82 -93 -813 0
4 -11 -26 814 0
-26 -30 -814 815 0
-30 -35 -65 -815 0
2 -28 -42 816 0
-42 -46 -816 817 0
-46 -50 -817 818 0
-50 60 -818 819 0
60 -79 -99 -819 0
13 20 -31 820 0
-31 -60 62 -820 0
-3 -30 -33 46 0
42 -47 54 821 0
54 55 90 -821 0
-9 29 31 822 0
31 44 -822 823 0
44 45 -823 824 0
45 61 -824 825 0
61 65 -825 826 0
65 -71 -95 -826 0
24 37 40 827 0
40 42 -827 828 0
42 -56 -828 829 0
-56 -73 99 -829 0
-13 -36 -42 830 0
-13 -36 -42 -830 0
25 26 -32 831 0
-32 53 -72 -831 0
22 48 -61 832 0
-61 -71 -82 -832 0
-5 13 35 833 0
35 41 84 -833 0
9 -50 -57 84 0
41 -54 -77 -96 0
-3 -15 39 834 0
39 40 -51 -834 0
13 -18 25 835 0
25 52 -835 836 0
52 -53 -836 837 0
-53 -64 -837 838 0
-64 -79 -82 -838 0
-2 -5 -41 839 0
-41 -46 -839 840 0
-46 52 -840 841 0
52 53 81 -841 0
3 61 -90 93 0
-50 55 84 -99 0
37 -59 68 842 0
68 -69 -72 -842 0
-74 84 843 844 0
-74 84 843 -844 0
-74 84 -843 844 0
-74 84 -843 -844 0
7 -8 25 845 0
25 26 -845 846 0
26 37 -846 847 0
37 45 -847 848 0
45 -53 -848 849 0
-53 -60 -99 -849 0
-21 25 -33 850 0
-33 36 -850 851 0
36 -37 -851 852 0
-37 71 83 -852 0
-37 53 71 -77 0
56 -78 -82 -94 0
18 -31 48 72 0
-14 -23 55 853 0
-14 -23 55 -853 0
-27 -29 35 83 0
-1 -24 -30 65 0
2 12 13 854 0
13 -16 -854 855 0
-16 -26 -855 856 0
-26 41 -856 857 0
41 -52 -857 858 0
-52 91 92 -858 0
-3 6 61 85 0
15 55 -94 97 0
5 -12 21 859 0
21 -28 -859 860 0
-28 52 -860 861 0
52 61 -99 -861 0
-7 10 16 862 0
16 -23 -862 863 0
-23 -26 -863 864 0
-26 47 -864 865 0
47 -55 -865 866 0
-55 -72 90 -866 0
-8 11 -14 867 0
-14 -44 -867 868 0
-44 81 -85 -868 0
-1 -19 -59 869 0
-59 62 -869 870 0
62 -74 -870 871 0
-74 87 -92 -871 0
7 46 58 872 0
58 -80 -872 873 0
-80 -89 100 -873 0
11 38 -66 68 0
-1 56 874 875 0
-1 56 874 -875 0
-1 56 -874 875 0
-1 56 -874 -875 0
9 -46 -75 876 0
9 -46 -75 -876 0
-16 -94 877 878 0
-16 -94 877 -878 0
-16 -94 -877 878 0
-16 -94 -877 -878 0
13 -27 -39 879 0
-39 68 -74 -879 0
-7 -21 27 880 0
27 34 -880 881 0
34 61 -881 882 0
61 -65 -882 883 0
-65 -84 -93 -883 0
-61 69 884 885 0
-61 69 884 -885 0
-61 69 -884 885 0
-61 69 -884 -885 0
-55 68 93 886 0
-55 68 93 -886 0
-6 22 37 887 0
37 -43 -887 888 0
-43 -53 60 -888 0
-8 32 68 78 0
-9 -14 85 -86 0
-47 -98 889 890 0
-47 -98 889 -890 0
-47 -98 -889 890 0
-47 -98 -889 -890 0
-1 -16 -92 891 0
-1 -16 -92 -891 0
-3 18 36 88 0
-12 -18 41 892 0
41 46 -892 893 0
46 62 -893 894 0
62 64 -894 895 0
64 -72 -895 896 0
-72 -90 93 -896 0
3 43 48 897 0
48 63 -100 -897 0
3 -4 16 898 0
16 61 -898 899 0
61 -81 -899 900 0
-81 95 -97 -900 0
-9 12 14 -35 0
25 36 -38 901 0
-38 -42 -901 902 0
-42 69 -902 903 0
69 85 87 -903 0
-9 13 -30 904 0
-30 43 -904 905 0
43 92 -97 -905 0
-35 -70 906 907 0
-35 -70 906 -907 0
-35 -70 -906 907 0
-35 -70 -906 -907 0
1 -55 -67 908 0
-67 87 -97 -908 0
50 -86 -95 909 0
50 -86 -95 -909 0
5 18 -38 910 0
-38 -47 -910 911 0
-47 -54 -911 912 0
-54 58 -912 913 0
58 -71 -913 914 0
-71 95 97 -914 0
-9 -20 -37 915 0
-37 40 -55 -915 0
-30 -80 916 917 0
-30 -80 916 -917 0
-30 -80 -916 917 0
-30 -80 -916 -917 0
-31 51 -56 918 0
-56 59 -98 -918 0
13 -23 27 919 0
27 30 -919 920 0
30 -32 -920 921 0
-32 -41 -921 922 0
-41 -67 -922 923 0
-67 -78 89 -923 0
16 21 28 924 0
28 -77 -924 925 0
-77 82 -95 -925 0
22 60 926 927 0
22 60 926 -927 0
22 60 -926 927 0
22 60 -926 -927 0
-25 35 53 928 0
53 60 61 -928 0
4 12 15 929 0
15 22 -929 930 0
22 -55 -930 931 0
-55 58 -931 932 0
58 -71 -88 -932 0
-9 -11 -50 933 0
-9 -11 -50 -933 0
-12 -17 20 934 0
20 34 -934 935 0
34 -45 -935 936 0
-45 67 -936 937 0
67 86 -92 -937 0
3 6 12 938 0
12 -28 -87 -938 0
-19 -45 60 -85 0
10 -12 45 939 0
45 56 -90 -939 0
19 20 61 -75 0
15 27 49 940 0
49 58 98 -940 0
14 -17 59 100 0
-43 -47 941 942 0
-43 -47 941 -942 0
-43 -47 -941 942 0
-43 -47 -941 -942 0
51 82 -99 943 0
51 82 -99 -943 0
-33 55 -78 944 0
-78 -82 -94 -944 0
20 23 26 945 0
26 -29 -945 946 0
-29 -73 -946 947 0
-73 75 -947 948 0
75 -76 -948 949 0
-76 86 -949 950 0
86 -90 -950 951 0
-90 -93 97 -951 0
35 -46 -57 96 0
36 54 -59 952 0
36 54 -59 -952 0
7 -24 -63 953 0
-63 68 -953 954 0
68 72 -954 955 0
72 -84 -955 956 0
-84 86 90 -956 0
-8 -27 44 957 0
44 -69 -957 958 0
-69 91 95 -958 0
37 47 -56 959 0
37 47 -56 -959 0
33 37 -40 -88 0
-4 72 960 961 0
-4 72 960 -961 0
-4 72 -960 961 0
-4 72 -960 -961 0
37 -52 63 962 0
63 69 -962 963 0
69 72 -963 964 0
72 74 -88 -964 0
-11 -16 -23 965 0
-23 -42 -965 966 0
-42 -66 -966 967 0
-66 -71 -84 -967 0
48 53 -56 -69 0
37 -39 -42 968 0
-42 -63 -86 -968 0
18 -28 75 969 0
18 -28 75 -969 0
22 30 94 970 0
22 30 94 -970 0
68 69 -84 971 0
68 69 -84 -971 0
36 -45 66 82 0
27 -39 43 972 0
43 45 -972 973 0
45 -48 56 -973 0
-2 37 43 -80 0
4 -28 974 975 0
4 -28 974 -975 0
4 -28 -974 975 0
4 -28 -974 -975 0
-6 -16 27 976 0
27 28 -976 977 0
28 -69 -977 978 0
-69 -73 -77 -978 0
7 -28 41 979 0
7 -28 41 -979 0
24 58 -63 980 0
-63 -80 -980 981 0
-80 87 -981 982 0
87 92 -97 -982 0
44 -46 -51 983 0
-51 55 -983 984 0
55 61 -984 985 0
61 72 81 -985 0
15 -33 -46 986 0
-46 50 -986 987 0
50 62 -987 988 0
62 -65 -988 989 0
-65 71 -989 990 0
71 -77 97 -990 0
-3 -6 -22 98 0
-9 -29 -83 991 0
-9 -29 -83 -991 0
-10 -13 16 992 0
16 -24 -992 993 0
-24 -26 -993 994 0
-26 -70 -100 -994 0
20 -43 -47 995 0
-47 88 -995 996 0
88 99 -100 -996 0
-4 -36 49 997 0
49 -83 98 -997 0
-27 -29 53 998 0
53 81 -998 999 0
81 -91 -99 -999 0
-38 -41 -66 79 0
42 -82 86 1000 0
42 -82 86 -1000 0
-30 55 78 83 0
36 -90 1001 1002 0
36 -90 1001 -1002 0
36 -90 -1001 1002 0
36 -90 -1001 -1002 0
2 36 -50 1003 0
-50 -65 70 -1003 0
-25 -37 54 1004 0
-25 -37 54 -1004 0
16 54 -60 1005 0
-60 82 -1005 1006 0
82 83 -95 -1006 0
-24 26 -46 1007 0
-46 50 -1007 1008 0
50 -65 -1008 1009 0
-65 79 -1009 1010 0
79 82 84 -1010 0
-48 68 88 1011 0
88 91 92 -1011 0
-22 42 -56 78 0
-33 65 76 1012 0
-33 65 76 -1012 0
-49 -81 84 1013 0
-49 -81 84 -1013 0
12 -21 24 1014 0
24 44 -1014 1015 0
44 45 97 -1015 0
-18 54 73 1016 0
73 75 77 -1016 0
71 76 1017 1018 0
71 76 1017 -1018 0
71 76 -1017 1018 0
71 76 -1017 -1018 0
-9 -21 -49 1019 0
-49 -62 -72 -1019 0
32 43 100 1020 0
32 43 100 -1020 0
1 -31 37 -73 0
27 46 47 1021 0
47 -82 91 -1021 0
-3 -23 34 1022 0
34 -39 -1022 1023 0
-39 -58 -1023 1024 0
-58 60 -1024 1025 0
60 65 -71 -1025 0
5 68 -70 1026 0
5 68 -70 -1026 0
-7 50 52 1027 0
52 -67 69 -1027 0
-8 -75 -97 1028 0
-8 -75 -97 -1028 0
26 -70 -93 1029 0
26 -70 -93 -1029 0
-52 -65 87 1030 0
-52 -65 87 -1030 0
-9 11 -12 1031 0
-9 11 -12 -1031 0
28 -29 -43 1032 0
-43 53 -1032 1033 0
53 -84 -86 -1033 0
2 29 38 1034 0
38 -50 -1034 1035 0
-50 -54 90 -1035 0
23 -26 -71 1036 0
23 -26 -71 -1036 0
13 24 35 1037 0
35 38 67 -1037 0
-6 10 -21 -26 0
-8 -13 92 1038 0
-8 -13 92 -1038 0
31 32 -48 1039 0
-48 52 -1039 1040 0
52 54 -1040 1041 0
54 75 -1041 1042 0
75 -82 -91 -1042 0
23 60 75 1043 0
23 60 75 -1043 0
-4 -41 -66 1044 0
-66 77 -1044 1045 0
77 78 -1045 1046 0
78 -93 -96 -1046 0
55 58 80 -95 0
55 -76 88 -89 0
41 -47 -59 1047 0
-59 -80 -1047 1048 0
-80 82 -1048 1049 0
82 83 -1049 1050 0
83 -85 -1050 1051 0
-85 87 -1051 1052 0
87 88 -1052 1053 0
88 -90 -95 -1053 0
-33 54 -75 1054 0
-33 54 -75 -1054 0
5 16 -34 1055 0
5 16 -34 -1055 0
-18 26 27 1056 0
27 46 -1056 1057 0
46 61 -1057 1058 0
61 -84 -93 -1058 0
32 -68 1059 1060 0
32 -68 1059 -1060 0
32 -68 -1059 1060 0
32 -68 -1059 -1060 0
-11 16 33 1061 0
33 -61 -1061 1062 0
-61 79 -97 -1062 0
17 54 71 1063 0
17 54 71 -1063 0
-8 14 36 1064 0
36 50 -1064 1065 0
50 -65 -1065 1066 0
-65 -81 -89 -1066 0
65 -69 1067 1068 0
65 -69 1067 -1068 0
65 -69 -1067 1068 0
65 -69 -1067 -1068 0
-30 -37 1069 1070 0
-30 -37 1069 -1070 0
-30 -37 -1069 1070 0
-30 -37 -1069 -1070 0
-3 -8 55 1071 0
55 69 -1071 1072 0
69 -80 91 -1072 0
25 57 1073 1074 0
25 57 1073 -1074 0
25 57 -1073 1074 0
25 57 -1073 -1074 0
38 45 54 1075 0
54 56 -1075 1076 0
56 61 -1076 1077 0
61 72 -1077 1078 0
72 -86 -1078 1079 0
-86 -89 99 -1079 0
-1 12 13 1080 0
13 20 -1080 1081 0
20 -30 -1081 1082 0
-30 -57 -1082 1083 0
-57 65 74 -1083 0
3 -8 19 1084 0
19 -36 -1084 1085 0
-36 41 -1085 1086 0
41 -61 -92 -1086 0
19 23 -52 -84 0
-5 24 -36 1087 0
-36 61 -78 -1087 0
-7 26 59 -92 0
4 14 28 1088 0
28 -34 -1088 1089 0
-34 37 -1089 1090 0
37 55 -57 -1090 0
13 42 1091 1092 0
13 42 1091 -1092 0
13 42 -1091 1092 0
13 42 -1091 -1092 0
3 -5 -55 -93 0
75 76 -81 -95 0
17 59 87 1093 0
17 59 87 -1093 0
-2 -6 19 1094 0
19 24 -1094 1095 0
24 -37 -1095 1096 0
-37 41 -1096 1097 0
41 -63 -1097 1098 0
-63 67 -99 -1098 0
-59 82 -97 1099 0
-59 82 -97 -1099 0
2 -12 -23 1100 0
-23 -60 -1100 1101 0
-60 84 -91 -1101 0
1 3 21 1102 0
21 57 -1102 1103 0
57 -60 67 -1103 0
26 29 -56 1104 0
-56 62 87 -1104 0
-12 15 -25 76 0
4 19 34 1105 0
34 41 -1105 1106 0
41 -46 -1106 1107 0
-46 99 100 -1107 0
-58 98 1108 1109 0
-58 98 1108 -1109 0
-58 98 -1108 1109 0
-58 98 -1108 -1109 0
4 -16 -57 1110 0
-57 60 -1110 1111 0
60 -81 -98 -1111 0
-1 -3 12 1112 0
12 -18 -1112 1113 0
-18 -22 -1113 1114 0
-22 -71 -1114 1115 0
-71 90 95 -1115 0
21 26 -41 1116 0
-41 -67 -1116 1117 0
-67 78 80 -1117 0
6 -41 -70 1118 0
6 -41 -70 -1118 0
51 79 1119 1120 0
51 79 1119 -1120 0
51 79 -1119 1120 0
51 79 -1119 -1120 0
-18 -28 -51 1121 0
-51 58 -1121 1122 0
58 -64 95 -1122 0
52 -56 1123 1124 0
52 -56 1123 -1124 0
52 -56 -1123 1124 0
52 -56 -1123 -1124 0
3 17 18 1125 0
18 -53 -1125 1126 0
-53 84 -1126 1127 0
84 87 -1127 1128 0
87 -94 100 -1128 0
25 26 -33 1129 0
-33 -38 -44 -1129 0
-12 19 -20 1130 0
-20 -57 -1130 1131 0
-57 66 -1131 1132 0
66 -69 -1132 1133 0
-69 -93 -97 -1133 0
-2 -34 -40 1134 0
-40 -53 -1134 1135 0
-53 80 -1135 1136 0
80 82 99 -1136 0
19 26 -27 1137 0
-27 65 -1137 1138 0
65 -75 91 -1138 0
-8 13 -20 1139 0
-20 -35 -1139 1140 0
-35 -39 -1140 1141 0
-39 -44 -74 -1141 0
11 -37 -51 1142 0
-51 -55 -1142 1143 0
-55 -59 -1143 1144 0
-59 69 -88 -1144 0
22 29 -40 1145 0
-40 -69 71 -1145 0
-12 -39 -42 55 0
-4 51 -56 1146 0
-56 63 -1146 1147 0
63 64 99 -1147 0
8 -18 38 1148 0
38 40 -1148 1149 0
40 53 -1149 1150 0
53 54 -1150 1151 0
54 70 -1151 1152 0
70 74 -80 -1152 0
33 46 49 1153 0
49 51 -1153 1154 0
51 -65 -82 -1154 0
-22 -45 -51 1155 0
-22 -45 -51 -1155 0
34 35 -41 1156 0
-41 62 -81 -1156 0
31 57 -70 1157 0
-70 -80 -91 -1157 0
-14 22 44 1158 0
44 50 93 -1158 0
-5 18 -59 1159 0
-59 -66 93 -1159 0
50 -63 -86 1160 0
50 -63 -86 -1160 0
-12 -24 48 1161 0
48 49 -60 -1161 0
22 -27 34 1162 0
34 61 -1162 1163 0
61 -62 -1163 1164 0
-62 -73 -1164 1165 0
-73 -88 -91 -1165 0
2 -11 -14 1166 0
-14 -50 -1166 1167 0
-50 -55 -1167 1168 0
-55 61 -1168 1169 0
61 62 90 -1169 0
-8 12 70 -99 0
-59 64 93 1170 0
-59 64 93 -1170 0
46 -68 77 1171 0
77 -78 -81 -1171 0
-8 -83 93 1172 0
-8 -83 93 -1172 0
16 -17 34 1173 0
34 35 -1173 1174 0
35 46 -1174 1175 0
46 54 -1175 1176 0
54 -62 -69 -1176 0
-30 34 -42 1177 0
-42 45 -1177 1178 0
45 -46 -1178 1179 0
-46 80 92 -1179 0
-3 -46 62 1180 0
62 80 -86 -1180 0
65 -87 -91 1181 0
65 -87 -91 -1181 0
27 -40 57 81 0
-23 -32 64 1182 0
-23 -32 64 -1182 0
-36 -38 44 92 0
1 -10 -33 1183 0
-33 -39 74 -1183 0
11 21 22 1184 0
22 -25 -1184 1185 0
-25 -35 -1185 1186 0
-35 50 -1186 1187 0
50 -61 100 -1187 0
-3 6 -12 1188 0
-12 15 -1188 1189 0
15 70 94 -1189 0
-8 24 64 1190 0
-8 24 64 -1190 0
14 -21 30 1191 0
30 -37 -1191 1192 0
-37 61 70 -1192 0
-16 19 25 1193 0
25 -32 -1193 1194 0
-32 -35 -1194 1195 0
-35 56 -1195 1196 0
56 -64 -1196 1197 0
-64 -81 99 -1197 0
-1 -17 20 1198 0
20 -23 -1198 1199 0
-23 -53 -1199 1200 0
-53 90 -94 -1200 0
9 -10 -28 1201 0
-28 -68 -1201 1202 0
-68 71 -1202 1203 0
71 -83 96 -1203 0
16 55 67 1204 0
67 -89 -98 -1204 0
20 47 -75 77 0
-10 65 1205 1206 0
-10 65 1205 -1206 0
-10 65 -1205 1206 0
-10 65 -1205 -1206 0
-3 18 -55 -84 0
-2 22 -36 1207 0
-36 -48 -1207 1208 0
-48 77 -83 -1208 0
-16 -30 36 1209 0
36 43 -1209 1210 0
43 70 -1210 1211 0
70 -74 -93 -1211 0
2 -70 78 1212 0
2 -70 78 -1212 0
-64 77 1213 1214 0
-64 77 1213 -1214 0
-64 77 -1213 1214 0
-64 77 -1213 -1214 0
-15 31 46 1215 0
46 -52 -1215 1216 0
-52 -62 69 -1216 0
-17 41 77 87 0
-7 -18 -23 1217 0
-23 94 -95 -1217 0
-1 -56 1218 1219 0
-1 -56 1218 -1219 0
-1 -56 -1218 1219 0
-1 -56 -1218 -1219 0
-10 -25 1220 1221 0
-10 -25 1220 -1221 0
-10 -25 -1220 1221 0
-10 -25 -1220 -1221 0
2 -12 27 1222 0
27 45 97 -1222 0
-9 -21 -27 1223 0
-27 50 -1223 1224 0
50 55 -1224 1225 0
55 71 -1225 1226 0
71 73 -1226 1227 0
73 -81 -99 -1227 0
12 52 57 72 0
4 -6 -26 1228 0
4 -6 -26 -1228 0
12 -13 25 1229 0
25 70 -90 -1229 0
-18 21 23 -44 0
1 -6 34 1230 0
34 45 -1230 1231 0
45 -47 -1231 1232 0
-47 -51 -1232 1233 0
-51 78 -1233 1234 0
78 94 96 -1234 0
-18 22 -39 52 0
-6 -44 -79 1235 0
-6 -44 -79 -1235 0
-4 10 -64 1236 0
-64 -76 96 -1236 0
4 6 59 -95 0
14 27 -47 1237 0
-47 -56 -1237 1238 0
-56 -63 -1238 1239 0
-63 67 -80 -1239 0
-18 -29 -46 1240 0
-46 49 -64 -1240 0
-7 -39 -89 1241 0
-7 -39 -89 -1241 0
-40 60 -65 68 0
-4 22 -32 1242 0
-32 36 -1242 1243 0
36 39 -1243 1244 0
39 -41 -1244 1245 0
-41 -50 -1245 1246 0
-50 -76 -1246 1247 0
-76 -87 98 -1247 0
25 30 37 1248 0
37 -86 91 -1248 0
31 69 1249 1250 0
31 69 1249 -1250 0
31 69 -1249 1250 0
31 69 -1249 -1250 0
-34 44 62 1251 0
62 69 70 -1251 0
13 21 24 1252 0
24 31 -1252 1253 0
31 -64 -1253 1254 0
-64 67 -1254 1255 0
67 -80 -97 -1255 0
-1 -18 -20 -59 0
4 -21 -26 1256 0
-26 29 -1256 1257 0
29 43 -1257 1258 0
43 -54 -1258 1259 0
-54 76 95 -1259 0
12 15 21 1260 0
21 -37 -96 -1260 0
-28 -54 69 -94 0
19 -21 54 1261 0
54 65 -99 -1261 0
7 28 29 1262 0
29 70 -84 -1262 0
9 24 36 1263 0
36 58 67 -1263 0
23 -26 68 1264 0
23 -26 68 -1264 0
-8 -52 -56 1265 0
-8 -52 -56 -1265 0
-3 60 91 1266 0
-3 60 91 -1266 0
-2 6 -42 1267 0
-42 64 -1267 1268 0
64 -87 -91 -1268 0
5 29 32 1269 0
32 35 -1269 1270 0
35 -38 -1270 1271 0
-38 -82 -1271 1272 0
-82 84 -1272 1273 0
84 -85 -1273 1274 0
-85 95 -99 -1274 0
44 -55 -66 1275 0
44 -55 -66 -1275 0
45 63 -68 1276 0
45 63 -68 -1276 0
4 16 -33 1277 0
-33 -72 -1277 1278 0
-72 77 -1278 1279 0
77 81 -1279 1280 0
81 -93 -1280 1281 0
-93 95 99 -1281 0
-17 -36 53 1282 0
53 -78 100 -1282 0
46 56 -65 1283 0
46 56 -65 -1283 0
42 46 -49 -97 0
-13 81 1284 1285 0
-13 81 1284 -1285 0
-13 81 -1284 1285 0
-13 81 -1284 -1285 0
46 -61 72 1286 0
72 78 -1286 1287 0
78 81 -1287 1288 0
81 83 -97 -1288 0
-20 -25 -32 1289 0
-32 -51 -1289 1290 0
-51 -75 -1290 1291 0
-75 -80 -93 -1291 0
57 62 -65 -78 0
46 -48 -51 1292 0
-51 -72 -95 -1292 0
3 27 -37 84 0
31 39 1293 1294 0
31 39 1293 -1294 0
31 39 -1293 1294 0
31 39 -1293 -1294 0
77 78 -93 1295 0
77 78 -93 -1295 0
45 -54 75 91 0
36 -48 52 1296 0
52 54 -1296 1297 0
54 -57 65 -1297 0
-11 46 52 -89 0
13 -37 1298 1299 0
13 -37 1298 -1299 0
13 -37 -1298 1299 0
13 -37 -1298 -1299 0
-15 -25 36 1300 0
36 37 -1300 1301 0
37 -78 -1301 1302 0
-78 -82 -86 -1302 0
1 -6 16 1303 0
16 -37 50 -1303 0
33 67 -72 1304 0
-72 -89 96 -1304 0
6 53 -55 1305 0
-55 -60 -1305 1306 0
-60 64 -1306 1307 0
64 70 -1307 1308 0
70 81 90 -1308 0
7 24 -42 1309 0
-42 -55 -1309 1310 0
-55 59 -1310 1311 0
59 71 -1311 1312 0
71 -74 -1312 1313 0
-74 80 -86 -1313 0
-12 -15 -31 1314 0
-12 -15 -31 -1314 0
-9 -18 -38 -92 0
8 -9 -19 1315 0
-19 -22 -1315 1316 0
-22 25 -1316 1317 0
25 -33 -1317 1318 0
-33 -35 -79 -1318 0
7 29 -52 1319 0
-52 -56 97 -1319 0
-8 -13 -45 1320 0
-45 58 -92 -1320 0
-36 -38 62 1321 0
62 90 -100 -1321 0
-47 -50 -75 88 0
51 -91 95 1322 0
51 -91 95 -1322 0
-39 64 87 92 0
45 -99 1323 1324 0
45 -99 1323 -1324 0
45 -99 -1323 1324 0
45 -99 -1323 -1324 0
11 45 -59 1325 0
-59 -74 79 -1325 0
-4 -34 -46 63 0
25 63 -69 1326 0
-69 91 92 -1326 0
1 -33 35 1327 0
35 -55 -1327 1328 0
-55 59 -1328 1329 0
59 -74 -1329 1330 0
-74 88 -1330 1331 0
88 91 93 -1331 0
-57 77 97 100 0
-31 51 -65 87 0
-42 74 85 1332 0
-42 74 85 -1332 0
6 -58 -90 93 0
21 -30 33 1333 0
33 53 54 -1333 0
-27 63 82 1334 0
82 84 86 -1334 0
80 85 1335 1336 0
80 85 1335 -1336 0
80 85 -1335 1336 0
80 85 -1335 -1336 0
9 -18 -30 1337 0
-30 -58 -1337 1338 0
-58 -71 -81 -1338 0
41 52 1339 1340 0
41 52 1339 -1340 0
41 52 -1339 1340 0
41 52 -1339 -1340 0
10 -40 46 -82 0
36 55 56 1341 0
56 -91 100 -1341 0
-12 -32 43 1342 0
43 -48 -1342 1343 0
-48 -67 -1343 1344 0
-67 69 -1344 1345 0
69 74 -80 -1345 0
14 77 -79 1346 0
14 77 -79 -1346 0
-6 -16 59 1347 0
59 61 -1347 1348 0
61 -76 78 -1348 0
-2 -17 -84 1349 0
-2 -17 -84 -1349 0
35 -79 1350 1351 0
35 -79 1350 -1351 0
35 -79 -1350 1351 0
35 -79 -1350 -1351 0
-61 -74 96 1352 0
-61 -74 96 -1352 0
-18 20 -21 1353 0
-18 20 -21 -1353 0
37 -38 -52 1354 0
-52 62 -1354 1355 0
62 -93 -95 -1355 0
11 38 47 1356 0
47 -59 -1356 1357 0
-59 -63 99 -1357 0
32 -35 -80 1358 0
32 -35 -80 -1358 0
22 33 44 1359 0
44 47 76 -1359 0
1 -15 19 1360 0
19 -30 -35 -1360 0
-17 -22 1361 1362 0
-17 -22 1361 -1362 0
-17 -22 -1361 1362 0
-17 -22 -1361 -1362 0
40 41 -57 1363 0
-57 61 -1363 1364 0
61 63 -1364 1365 0
63 84 -1365 1366 0
84 -91 -100 -1366 0
-2 -5 32 1367 0
32 69 84 -1367 0
-4 -13 -50 1368 0
-50 -75 -1368 1369 0
-75 86 87 -1369 0
64 67 89 1370 0
64 67 89 -1370 0
-4 64 -85 1371 0
-85 97 -98 -1371 0
50 -56 -68 1372 0
-68 -89 -1372 1373 0
-89 91 -1373 1374 0
91 92 -1374 1375 0
92 -94 -1375 1376 0
-94 96 -1376 1377 0
96 97 -99 -1377 0
-42 63 -84 1378 0
-42 63 -84 -1378 0
-2 14 25 -43 0
-27 35 36 1379 0
36 55 -1379 1380 0
55 70 -93 -1380 0
-6 41 -77 1381 0
-6 41 -77 -1381 0
-20 25 42 1382 0
42 -70 88 -1382 0
26 63 80 1383 0
26 63 80 -1383 0
-17 23 45 1384 0
45 59 -1384 1385 0
59 -74 -1385 1386 0
-74 -90 -98 -1386 0
74 -78 1387 1388 0
74 -78 1387 -1388 0
74 -78 -1387 1388 0
74 -78 -1387 -1388 0
-39 -46 1389 1390 0
-39 -46 1389 -1390 0
-39 -46 -1389 1390 0
-39 -46 -1389 -1390 0
-12 -17 64 1391 0
64 78 -1391 1392 0
78 -89 100 -1392 0
8 34 66 1393 0
8 34 66 -1393 0
47 54 63 1394 0
63 65 -1394 1395 0
65 70 -1395 1396 0
70 81 -1396 1397 0
81 -95 -98 -1397 0
-1 -10 21 1398 0
21 22 -1398 1399 0
22 29 -1399 1400 0
29 -39 -1400 1401 0
-39 -66 -1401 1402 0
-66 74 83 -1402 0
12 -17 28 1403 0
28 -45 -1403 1404 0
-45 50 -70 -1404 0
28 32 -61 -93 0
-1 -14 33 1405 0
33 -45 -1405 1406 0
-45 70 -87 -1406 0
-16 35 68 1407 0
-16 35 68 -1407 0
13 23 37 1408 0
37 -43 -1408 1409 0
-43 46 -1409 1410 0
46 64 -66 -1410 0
-2 22 51 1411 0
-2 22 51 -1411 0
-4 12 -14 -64 0
84 85 -90 1412 0
84 85 -90 -1412 0
26 68 96 1413 0
26 68 96 -1413 0
-8 19 1414 1415 0
-8 19 1414 -1415 0
-8 19 -1414 1415 0
-8 19 -1414 -1415 0
-6 -11 -15 1416 0
-15 28 -1416 1417 0
28 33 -1417 1418 0
33 -46 -1418 1419 0
-46 50 -1419 1420 0
50 -72 76 -1420 0
-68 91 1421 1422 0
-68 91 1421 -1422 0
-68 91 -1421 1422 0
-68 91 -1421 -1422 0
11 -21 -32 1423 0
-32 -69 -1423 1424 0
-69 93 -100 -1424 0
10 12 30 1425 0
30 66 -1425 1426 0
66 -69 76 -1426 0
35 38 -65 1427 0
-65 71 96 -1427 0
-21 24 -34 85 0
8 9 40 1428 0
8 9 40 -1428 0
7 13 28 1429 0
28 43 -1429 1430 0
43 50 -55 -1430 0
-7 -67 1431 1432 0
-7 -67 1431 -1432 0
-7 -67 -1431 1432 0
-7 -67 -1431 -1432 0
4 13 -25 1433 0
-25 -66 -1433 1434 0
-66 69 -90 -1434 0
